c A SAT instance generated from a 3-CNF formula that had 26 clauses and 13 variables
p cnf 13 26
-10 -6 -7 0
11 5 8 0
-6 -13 -3 0
-4 2 7 0
8 11 4 0
-13 -5 -4 0
-6 -1 4 0
6 -8 9 0
4 -8 -2 0
-4 6 3 0
13 -3 10 0
-6 -8 -11 0
10 2 13 0
11 -1 6 0
-8 2 -13 0
11 -4 -10 0
-2 10 12 0
-4 13 -12 0
13 5 2 0
12 5 6 0
10 -12 -4 0
12 6 -11 0
2 -6 -10 0
-3 9 2 0
-9 -10 13 0
-2 -9 -5 0
